Minimize
  obj: x0 + x1 + x2 + x3 + x4 + x5 + x6 + x7

Subject To
  c0: x1 + x3 + x6 + x7 = 49
  c1: x0 + x3 + x6 = 34
  c2: x1 + x2 + x4 = 42
  c3: x1 + x3 + x6 + x7 = 49
  c4: x0 + x1 + x5 + x6 + x7 = 69
  c5: x2 + x3 + x6 = 25
  c6: x0 + x1 + x2 + x6 + x7 = 59

Bounds
  x0 >= 0
  x1 >= 0
  x2 >= 0
  x3 >= 0
  x4 >= 0
  x5 >= 0
  x6 >= 0
  x7 >= 0

Generals
  x0 x1 x2 x3 x4 x5 x6 x7

End
